\ Model RSP
\ LP format - for model browsing. Use MPS format to capture full model detail.
Minimize
  6 x_0_1 + 4 x_0_2 + 6 x_1_0 + 5 x_1_5 + 4 x_2_0 + 4 x_2_3 + 4 x_2_11
   + 4 x_3_2 + 2 x_3_4 + 6 x_3_10 + 2 x_4_3 + 4 x_4_5 + 5 x_4_8 + 5 x_5_1
   + 4 x_5_4 + 2 x_5_7 + 3 x_6_7 + 2 x_6_17 + 2 x_7_5 + 3 x_7_6 + 10 x_7_8
   + 5 x_7_15 + 5 x_8_4 + 10 x_8_7 + 3 x_8_9 + 3 x_9_8 + 5 x_9_10
   + 6 x_9_14 + 4 x_9_15 + 8 x_9_16 + 6 x_10_3 + 5 x_10_9 + 6 x_10_11
   + 4 x_10_13 + 4 x_11_2 + 6 x_11_10 + 3 x_11_12 + 3 x_12_11 + 4 x_12_23
   + 4 x_13_10 + 5 x_13_14 + 4 x_13_22 + 6 x_14_9 + 5 x_14_13 + 3 x_14_18
   + 3 x_14_21 + 5 x_15_7 + 4 x_15_9 + 2 x_15_16 + 3 x_15_17 + 8 x_16_9
   + 2 x_16_15 + 2 x_16_18 + 2 x_17_6 + 3 x_17_15 + 4 x_17_19 + 3 x_18_14
   + 2 x_18_16 + 4 x_18_19 + 4 x_19_17 + 4 x_19_18 + 6 x_19_20 + 5 x_19_21
   + 6 x_20_19 + 2 x_20_21 + 3 x_20_23 + 3 x_21_14 + 5 x_21_19 + 2 x_21_20
   + 4 x_21_22 + 4 x_22_13 + 4 x_22_21 + 2 x_22_23 + 4 x_23_12 + 3 x_23_20
   + 2 x_23_22 + 3 x_1_4 + 3 x_4_1 + 3 x_3_9 + 4 x_9_3 + 4 x_13_9
   + 3 x_9_13 + 2 x_12_22 + 3 x_22_12 + 3 x_18_21 + 3 x_21_18 + y
Subject To
 Node_0: x_0_1 + x_0_2 - x_1_0 - x_2_0 = 0
 Node_1: - x_0_1 + x_1_0 + x_1_5 - x_5_1 + x_1_4 - x_4_1 = 0
 Node_2: - x_0_2 + x_2_0 + x_2_3 + x_2_11 - x_3_2 - x_11_2 = 0
 Node_3: - x_2_3 + x_3_2 + x_3_4 + x_3_10 - x_4_3 - x_10_3 + x_3_9 - x_9_3
   = 0
 Node_4: - x_3_4 + x_4_3 + x_4_5 + x_4_8 - x_5_4 - x_8_4 - x_1_4 + x_4_1
   = 0
 Node_5: - x_1_5 - x_4_5 + x_5_1 + x_5_4 + x_5_7 - x_7_5 = 0
 Node_6: x_6_7 + x_6_17 - x_7_6 - x_17_6 = -1
 Node_7: - x_5_7 - x_6_7 + x_7_5 + x_7_6 + x_7_8 + x_7_15 - x_8_7 - x_15_7
   = 0
 Node_8: - x_4_8 - x_7_8 + x_8_4 + x_8_7 + x_8_9 - x_9_8 = 0
 Node_9: - x_8_9 + x_9_8 + x_9_10 + x_9_14 + x_9_15 + x_9_16 - x_10_9
   - x_14_9 - x_15_9 - x_16_9 - x_3_9 + x_9_3 - x_13_9 + x_9_13 = 1
 Node_10: - x_3_10 - x_9_10 + x_10_3 + x_10_9 + x_10_11 + x_10_13 - x_11_10
   - x_13_10 = 0
 Node_11: - x_2_11 - x_10_11 + x_11_2 + x_11_10 + x_11_12 - x_12_11 = 0
 Node_12: - x_11_12 + x_12_11 + x_12_23 - x_23_12 + x_12_22 - x_22_12 = 0
 Node_13: - x_10_13 + x_13_10 + x_13_14 + x_13_22 - x_14_13 - x_22_13
   + x_13_9 - x_9_13 = 0
 Node_14: - x_9_14 - x_13_14 + x_14_9 + x_14_13 + x_14_18 + x_14_21
   - x_18_14 - x_21_14 = 0
 Node_15: - x_7_15 - x_9_15 + x_15_7 + x_15_9 + x_15_16 + x_15_17 - x_16_15
   - x_17_15 = 0
 Node_16: - x_9_16 - x_15_16 + x_16_9 + x_16_15 + x_16_18 - x_18_16 = 0
 Node_17: - x_6_17 - x_15_17 + x_17_6 + x_17_15 + x_17_19 - x_19_17 = 0
 Node_18: - x_14_18 - x_16_18 + x_18_14 + x_18_16 + x_18_19 - x_19_18
   + x_18_21 - x_21_18 = 0
 Node_19: - x_17_19 - x_18_19 + x_19_17 + x_19_18 + x_19_20 + x_19_21
   - x_20_19 - x_21_19 = 0
 Node_20: - x_19_20 + x_20_19 + x_20_21 + x_20_23 - x_21_20 - x_23_20 = 0
 Node_21: - x_14_21 - x_19_21 - x_20_21 + x_21_14 + x_21_19 + x_21_20
   + x_21_22 - x_22_21 - x_18_21 + x_21_18 = 0
 Node_22: - x_13_22 - x_21_22 + x_22_13 + x_22_21 + x_22_23 - x_23_22
   - x_12_22 + x_22_12 = 0
 Node_23: - x_12_23 - x_20_23 - x_22_23 + x_23_12 + x_23_20 + x_23_22 = 0
 variance_limit: x_0_1 + 9 x_0_2 + x_1_0 + 9 x_1_5 + 4 x_2_0 + 9 x_2_3
   + 4 x_2_11 + 9 x_3_2 + x_3_4 + 9 x_3_10 + x_4_3 + x_4_5 + 4 x_4_8
   + x_5_1 + x_5_4 + x_5_7 + 4 x_6_7 + 4 x_6_17 + x_7_5 + 9 x_7_6 + x_7_8
   + 4 x_7_15 + 9 x_8_4 + 9 x_8_7 + 4 x_8_9 + 9 x_9_8 + x_9_10 + 9 x_9_14
   + x_9_15 + 4 x_9_16 + x_10_3 + 9 x_10_9 + x_10_11 + 4 x_10_13 + 9 x_11_2
   + 9 x_11_10 + x_11_12 + 9 x_12_11 + 4 x_12_23 + 4 x_13_10 + 9 x_13_14
   + 4 x_13_22 + x_14_9 + 9 x_14_13 + x_14_18 + 4 x_14_21 + x_15_7
   + 4 x_15_9 + 4 x_15_16 + 4 x_15_17 + 4 x_16_9 + x_16_15 + 4 x_16_18
   + 4 x_17_6 + x_17_15 + 4 x_17_19 + x_18_14 + 4 x_18_16 + x_18_19
   + 4 x_19_17 + 9 x_19_18 + x_19_20 + 4 x_19_21 + x_20_19 + x_20_21
   + x_20_23 + 9 x_21_14 + 4 x_21_19 + 4 x_21_20 + 4 x_21_22 + x_22_13
   + 9 x_22_21 + x_22_23 + 4 x_23_12 + x_23_20 + 4 x_23_22 + 4 x_1_4
   + x_4_1 + 4 x_3_9 + x_9_3 + x_13_9 + 4 x_9_13 + 4 x_12_22 + x_22_12
   + 4 x_18_21 + x_21_18 + [ - y ^2 ] <= 0
Bounds
Binaries
 x_0_1 x_0_2 x_1_0 x_1_5 x_2_0 x_2_3 x_2_11 x_3_2 x_3_4 x_3_10 x_4_3 x_4_5
 x_4_8 x_5_1 x_5_4 x_5_7 x_6_7 x_6_17 x_7_5 x_7_6 x_7_8 x_7_15 x_8_4 x_8_7
 x_8_9 x_9_8 x_9_10 x_9_14 x_9_15 x_9_16 x_10_3 x_10_9 x_10_11 x_10_13
 x_11_2 x_11_10 x_11_12 x_12_11 x_12_23 x_13_10 x_13_14 x_13_22 x_14_9
 x_14_13 x_14_18 x_14_21 x_15_7 x_15_9 x_15_16 x_15_17 x_16_9 x_16_15
 x_16_18 x_17_6 x_17_15 x_17_19 x_18_14 x_18_16 x_18_19 x_19_17 x_19_18
 x_19_20 x_19_21 x_20_19 x_20_21 x_20_23 x_21_14 x_21_19 x_21_20 x_21_22
 x_22_13 x_22_21 x_22_23 x_23_12 x_23_20 x_23_22 x_1_4 x_4_1 x_3_9 x_9_3
 x_13_9 x_9_13 x_12_22 x_22_12 x_18_21 x_21_18
End
